
Gurobi 11.0.3 (linux64) logging started Fri Nov 22 02:14:28 2024

Set parameter LogFile to value "/home/yihong/Coding/OR_SUC/SUC_results_bigM100000_thread4/case24_ieee_rts_theta0.5_epsilon0.05_gurobi_seed1050000_num_gen100_N_WDR100_load_scaling_factor1_proposed_T24quadra_cost.txt"
Set parameter TimeLimit to value 3600
Gurobi Optimizer version 11.0.3 build v11.0.3rc0 (linux64 - "Ubuntu 20.04.6 LTS")

CPU model: AMD EPYC 7532 32-Core Processor, instruction set [SSE2|AVX|AVX2]
Thread count: 64 physical cores, 128 logical processors, using up to 4 threads

Optimize a model with 57558 rows, 29861 columns and 1315898 nonzeros
Model fingerprint: 0xaadd1645
Model has 2400 quadratic constraints
Variable types: 27461 continuous, 2400 integer (2400 binary)
Coefficient statistics:
  Matrix range     [3e-04, 2e+03]
  QMatrix range    [2e-03, 8e-03]
  QLMatrix range   [7e-02, 6e+01]
  Objective range  [1e+00, 1e+00]
  Bounds range     [1e+00, 1e+00]
  RHS range        [1e+00, 9e+03]
Presolve removed 47088 rows and 12684 columns
Presolve time: 0.39s
Presolved: 10470 rows, 17177 columns, 57683 nonzeros
Presolved model has 2400 quadratic constraint(s)
Variable types: 14777 continuous, 2400 integer (2400 binary)

Root relaxation: objective 5.139655e+04, 8440 iterations, 0.24 seconds (0.35 work units)

    Nodes    |    Current Node    |     Objective Bounds      |     Work
 Expl Unexpl |  Obj  Depth IntInf | Incumbent    BestBd   Gap | It/Node Time

     0     0 51396.5504    0    -          - 51396.5504      -     -    0s
     0     0 416455.575    0  662          - 416455.575      -     -    1s
     0     0 659764.474    0  599          - 659764.474      -     -    1s
     0     0 659817.594    0  301          - 659817.594      -     -    1s
     0     0 660011.169    0  189          - 660011.169      -     -    1s
     0     0 660015.799    0  189          - 660015.799      -     -    2s
     0     0 660015.799    0  189          - 660015.799      -     -    2s
     0     0 660017.303    0  189          - 660017.303      -     -    2s
     0     0 660017.594    0  189          - 660017.594      -     -    2s
     0     2 660017.594    0  181          - 660017.594      -     -    3s
    56    73 660119.791   15  128          - 660049.370      -  43.0    5s
H  161   200                    660289.07618 660049.370  0.04%  30.7    6s
*  161   200              82    660289.07618 660049.370  0.04%  30.7    6s

Cutting planes:
  Gomory: 87
  Implied bound: 295
  MIR: 31
  Flow cover: 189
  RLT: 231

Explored 203 nodes (28032 simplex iterations) in 6.85 seconds (8.90 work units)
Thread count was 4 (of 128 available processors)

Solution count 2: 660289 660289 

Optimal solution found (tolerance 1.00e-03)
Warning: max constraint violation (5.3130e-07) exceeds tolerance
Best objective 6.602890761825e+05, best bound 6.600493695468e+05, gap 0.0363%
